jobs  (incl. supersource/sink ):	102
RESOURCES
- renewable                 : 2 R
- nonrenewable              : 4 N
- doubly constrained        : 0 D
************************************************************************
PRECEDENCE RELATIONS:
jobnr.    #modes  #successors   successors
1	1	14		2 3 4 5 6 7 8 9 10 11 12 13 14 15 
2	9	11		56 47 45 42 34 31 29 24 21 19 17 
3	9	12		56 45 44 35 34 33 29 28 26 25 21 16 
4	9	9		47 44 42 36 29 28 20 19 18 
5	9	12		45 42 40 38 35 30 28 27 24 22 21 20 
6	9	13		49 47 45 44 42 37 36 34 33 30 28 26 19 
7	9	12		52 44 42 40 34 33 32 30 27 26 23 21 
8	9	16		56 49 47 45 44 43 39 38 36 35 34 33 30 27 24 22 
9	9	12		56 49 47 45 43 42 39 36 34 28 22 19 
10	9	11		56 44 43 42 38 37 34 30 29 24 21 
11	9	13		56 54 49 47 44 42 39 38 36 35 29 26 22 
12	9	12		56 53 49 44 39 38 35 34 27 26 24 22 
13	9	14		56 52 50 49 48 47 46 45 44 42 41 36 28 26 
14	9	11		56 50 47 46 43 42 40 36 34 28 24 
15	9	10		61 47 45 44 42 39 35 28 27 22 
16	9	13		63 59 52 51 49 46 43 42 41 40 39 38 30 
17	9	13		67 63 60 57 54 53 52 51 50 44 41 36 33 
18	9	9		56 54 50 49 41 40 38 33 26 
19	9	6		73 58 53 38 35 27 
20	9	12		101 73 72 68 65 59 57 56 53 48 43 34 
21	9	11		101 73 61 60 57 51 49 48 41 39 36 
22	9	13		79 67 65 63 60 59 58 57 52 51 50 46 41 
23	9	12		79 73 72 65 63 61 59 58 54 48 46 38 
24	9	15		101 79 67 65 63 62 61 60 59 58 57 54 52 48 41 
25	9	10		79 65 64 62 59 57 50 43 41 38 
26	9	17		101 99 79 78 73 72 70 68 67 65 64 63 62 61 58 55 43 
27	9	11		101 79 67 66 65 64 63 59 48 46 41 
28	9	18		101 99 79 73 72 71 70 69 68 65 62 60 59 58 57 54 53 51 
29	9	17		101 100 99 79 73 72 70 69 68 67 62 61 58 57 55 52 48 
30	9	15		101 79 70 69 67 65 61 60 58 57 55 54 53 50 48 
31	9	9		99 79 73 67 63 55 51 43 40 
32	9	16		100 99 77 73 72 70 69 68 66 65 61 59 57 56 51 48 
33	9	13		101 100 98 79 78 77 72 66 64 62 61 58 48 
34	9	12		99 94 79 74 70 67 63 62 61 60 55 54 
35	9	12		99 96 78 77 74 72 71 67 65 60 57 52 
36	9	14		100 99 98 93 91 79 78 72 70 69 66 64 62 59 
37	9	15		101 99 98 95 94 91 90 79 78 77 73 66 62 61 60 
38	9	13		101 100 99 94 91 90 78 70 69 67 66 60 55 
39	9	12		99 97 93 78 77 74 72 71 68 65 64 62 
40	9	12		100 98 93 84 77 72 71 70 68 66 65 64 
41	9	8		100 99 92 91 75 72 70 55 
42	9	7		92 79 72 70 65 60 55 
43	9	11		100 96 94 92 91 86 77 74 71 66 60 
44	9	9		101 99 98 91 74 72 71 65 64 
45	9	12		99 98 94 93 92 89 85 84 79 76 74 66 
46	9	9		98 94 90 89 78 77 69 68 62 
47	9	12		99 96 95 93 92 91 85 84 83 76 72 66 
48	9	12		95 94 93 91 88 87 86 85 84 76 74 71 
49	9	12		99 98 96 95 91 86 85 84 83 77 75 67 
50	9	10		99 96 88 87 86 85 76 74 73 71 
51	9	12		94 92 91 89 88 86 85 84 80 78 76 74 
52	9	6		95 91 83 75 66 64 
53	9	7		95 91 89 84 77 75 64 
54	9	11		98 91 88 86 85 84 80 78 77 76 75 
55	9	10		98 97 93 88 86 85 84 77 76 71 
56	9	11		96 94 93 91 87 86 85 84 83 80 74 
57	9	10		98 92 91 90 88 85 84 83 81 76 
58	9	8		94 93 91 89 87 84 76 75 
59	9	7		96 87 85 84 83 82 74 
60	9	8		97 93 88 85 84 82 80 75 
61	9	4		86 85 76 71 
62	9	7		96 92 86 84 83 81 80 
63	9	7		93 92 90 89 88 84 80 
64	9	6		92 90 86 85 80 76 
65	9	6		95 88 87 86 83 75 
66	9	6		97 88 87 82 81 80 
67	9	6		93 89 88 87 82 80 
68	9	6		92 91 86 85 83 80 
69	9	5		95 84 83 80 75 
70	9	4		96 95 89 82 
71	9	3		89 83 80 
72	9	3		94 90 81 
73	9	3		89 84 80 
74	9	2		90 75 
75	9	1		81 
76	9	1		82 
77	9	1		87 
78	9	1		83 
79	9	1		86 
80	9	1		102 
81	9	1		102 
82	9	1		102 
83	9	1		102 
84	9	1		102 
85	9	1		102 
86	9	1		102 
87	9	1		102 
88	9	1		102 
89	9	1		102 
90	9	1		102 
91	9	1		102 
92	9	1		102 
93	9	1		102 
94	9	1		102 
95	9	1		102 
96	9	1		102 
97	9	1		102 
98	9	1		102 
99	9	1		102 
100	9	1		102 
101	9	1		102 
102	1	0		
************************************************************************
REQUESTS/DURATIONS
jobnr.	mode	dur	R1	R2	N1	N2	N3	N4	
------------------------------------------------------------------------
1	1	0	0	0	0	0	0	0	
2	1	2	4	4	23	9	12	26	
	2	4	4	4	22	9	10	25	
	3	8	3	4	22	9	10	25	
	4	9	3	3	21	9	8	25	
	5	10	2	2	21	8	7	25	
	6	16	2	2	21	8	6	25	
	7	17	2	1	20	8	3	25	
	8	26	1	1	20	7	3	25	
	9	28	1	1	20	7	2	25	
3	1	2	3	4	29	18	18	25	
	2	4	3	4	29	16	17	23	
	3	6	3	4	29	16	16	20	
	4	12	3	4	28	14	15	20	
	5	14	3	4	28	14	13	18	
	6	18	3	3	28	13	13	17	
	7	20	3	3	27	12	11	14	
	8	21	3	3	27	10	10	13	
	9	22	3	3	27	10	8	13	
4	1	2	4	5	22	23	22	28	
	2	5	4	4	21	18	22	27	
	3	7	4	4	20	17	21	26	
	4	9	4	4	19	15	20	26	
	5	15	4	4	19	11	19	25	
	6	24	4	3	18	9	19	25	
	7	25	4	3	18	6	19	25	
	8	26	4	3	18	3	17	24	
	9	27	4	3	17	1	17	24	
5	1	1	4	5	2	28	22	30	
	2	3	3	4	2	24	22	25	
	3	5	3	4	2	23	22	24	
	4	7	3	3	2	21	22	23	
	5	8	3	3	2	17	22	21	
	6	12	3	2	2	15	22	16	
	7	16	3	2	2	13	22	16	
	8	22	3	1	2	11	22	13	
	9	23	3	1	2	9	22	10	
6	1	1	4	2	22	23	19	15	
	2	2	4	2	21	21	18	15	
	3	3	4	2	21	21	16	15	
	4	7	4	2	21	21	15	15	
	5	11	4	2	21	19	14	15	
	6	12	4	2	21	19	14	14	
	7	14	4	2	21	19	13	14	
	8	19	4	2	21	18	11	14	
	9	28	4	2	21	17	10	14	
7	1	8	4	4	20	5	17	26	
	2	16	3	3	17	5	17	26	
	3	17	3	3	15	5	17	25	
	4	20	3	3	14	5	17	23	
	5	21	2	2	12	5	17	23	
	6	23	2	2	11	5	17	22	
	7	24	1	2	8	5	17	22	
	8	28	1	2	7	5	17	21	
	9	30	1	2	4	5	17	20	
8	1	1	5	5	27	21	24	8	
	2	2	4	4	26	21	24	6	
	3	4	4	4	25	19	24	6	
	4	5	4	4	24	18	23	6	
	5	18	4	4	21	18	23	5	
	6	19	3	4	20	16	23	5	
	7	21	3	4	20	16	23	4	
	8	23	3	4	18	15	22	3	
	9	24	3	4	17	14	22	3	
9	1	3	2	3	12	29	19	22	
	2	4	2	2	11	29	17	21	
	3	8	2	2	11	29	17	19	
	4	9	2	2	11	29	15	18	
	5	14	2	2	10	28	15	16	
	6	24	2	2	9	28	15	16	
	7	25	2	2	9	27	13	15	
	8	26	2	2	9	27	12	12	
	9	28	2	2	8	27	12	11	
10	1	2	3	3	27	23	27	18	
	2	3	3	2	26	22	27	15	
	3	4	3	2	26	22	26	14	
	4	5	3	2	26	22	25	13	
	5	23	2	1	26	22	25	10	
	6	24	2	1	26	21	24	10	
	7	25	2	1	26	21	23	8	
	8	26	2	1	26	21	23	7	
	9	27	2	1	26	21	22	5	
11	1	2	5	3	27	14	21	16	
	2	5	4	3	27	14	21	15	
	3	6	4	3	22	13	18	15	
	4	7	4	3	18	12	18	15	
	5	8	4	3	16	10	16	14	
	6	9	4	3	15	10	14	13	
	7	10	4	3	10	9	12	13	
	8	26	4	3	9	7	9	11	
	9	28	4	3	3	6	8	11	
12	1	1	2	4	13	17	8	27	
	2	6	2	4	12	17	7	25	
	3	8	2	4	11	15	7	25	
	4	9	2	4	11	14	7	22	
	5	10	2	4	9	12	7	18	
	6	19	2	4	9	10	7	18	
	7	22	2	4	7	9	7	15	
	8	23	2	4	7	6	7	12	
	9	29	2	4	6	6	7	10	
13	1	4	3	3	2	19	14	28	
	2	18	2	3	1	17	12	27	
	3	19	2	3	1	15	10	25	
	4	20	2	3	1	12	9	24	
	5	21	2	3	1	11	8	24	
	6	22	2	3	1	11	7	22	
	7	25	2	3	1	9	5	21	
	8	27	2	3	1	7	4	19	
	9	28	2	3	1	6	4	18	
14	1	3	4	5	16	29	29	23	
	2	5	4	4	13	27	28	19	
	3	7	4	3	13	27	27	17	
	4	9	4	3	10	26	25	16	
	5	14	4	2	9	25	24	11	
	6	15	4	2	9	25	24	10	
	7	17	4	1	6	25	23	7	
	8	18	4	1	5	24	21	7	
	9	19	4	1	5	23	21	3	
15	1	7	4	4	25	4	15	14	
	2	9	3	4	21	4	14	14	
	3	12	3	4	19	4	12	14	
	4	13	3	4	16	4	12	14	
	5	14	2	4	15	4	10	14	
	6	22	2	3	12	4	10	14	
	7	23	2	3	11	4	8	14	
	8	29	2	3	6	4	7	14	
	9	30	2	3	6	4	7	13	
16	1	1	4	4	18	18	18	25	
	2	9	3	4	17	16	18	24	
	3	13	3	4	17	13	18	22	
	4	14	3	4	16	13	18	22	
	5	15	3	4	16	9	17	20	
	6	16	3	4	15	9	17	19	
	7	17	3	4	15	6	17	19	
	8	21	3	4	13	3	17	17	
	9	22	3	4	13	2	17	17	
17	1	1	1	4	24	17	19	17	
	2	8	1	4	23	16	19	16	
	3	10	1	4	21	14	19	15	
	4	15	1	3	21	11	19	13	
	5	16	1	2	19	11	19	13	
	6	23	1	2	17	7	19	12	
	7	24	1	2	17	5	19	11	
	8	27	1	1	14	3	19	10	
	9	29	1	1	14	1	19	9	
18	1	4	5	4	5	25	12	22	
	2	8	4	4	5	25	12	20	
	3	11	4	4	5	25	10	16	
	4	16	4	4	5	25	10	14	
	5	17	4	4	5	25	8	12	
	6	25	4	4	5	25	6	11	
	7	26	4	4	5	25	4	8	
	8	27	4	4	5	25	3	7	
	9	28	4	4	5	25	3	5	
19	1	4	4	3	14	22	24	11	
	2	9	4	2	14	22	23	10	
	3	14	4	2	14	21	23	10	
	4	17	4	2	14	20	23	10	
	5	19	4	1	14	18	22	8	
	6	22	4	1	14	18	21	8	
	7	26	4	1	14	16	21	8	
	8	28	4	1	14	15	19	7	
	9	29	4	1	14	15	19	6	
20	1	8	2	5	14	22	25	27	
	2	15	2	4	13	19	24	26	
	3	17	2	4	12	18	23	20	
	4	19	2	4	11	14	22	19	
	5	26	2	4	10	11	22	17	
	6	27	2	3	9	11	21	11	
	7	28	2	3	9	7	21	9	
	8	29	2	3	7	5	20	5	
	9	30	2	3	7	3	19	5	
21	1	6	2	3	23	22	30	23	
	2	14	2	2	21	20	23	21	
	3	15	2	2	19	17	22	20	
	4	16	2	2	17	14	19	17	
	5	18	1	2	17	14	14	15	
	6	19	1	2	15	12	11	13	
	7	20	1	2	12	9	9	11	
	8	25	1	2	11	7	7	10	
	9	26	1	2	10	5	3	8	
22	1	1	5	5	19	26	26	15	
	2	5	4	5	19	23	26	14	
	3	6	3	5	17	22	26	12	
	4	7	3	5	17	21	26	12	
	5	9	2	5	15	19	25	11	
	6	13	2	5	13	19	25	9	
	7	14	2	5	11	18	25	7	
	8	15	1	5	10	16	25	6	
	9	24	1	5	9	15	25	6	
23	1	3	4	4	30	25	19	8	
	2	5	4	3	29	24	18	7	
	3	8	4	3	29	24	17	7	
	4	15	4	2	29	24	15	7	
	5	16	4	2	29	24	13	7	
	6	23	4	2	29	24	8	7	
	7	27	4	1	29	24	6	7	
	8	28	4	1	29	24	6	6	
	9	29	4	1	29	24	4	7	
24	1	1	4	3	18	28	26	28	
	2	2	4	3	16	24	24	25	
	3	5	4	3	15	23	24	24	
	4	6	4	3	13	20	23	23	
	5	7	4	3	13	18	22	21	
	6	17	3	3	12	15	22	19	
	7	20	3	3	10	15	21	17	
	8	23	3	3	8	11	20	17	
	9	24	3	3	8	9	20	14	
25	1	4	2	4	15	25	14	12	
	2	7	2	4	14	23	13	12	
	3	13	2	4	13	20	12	12	
	4	21	2	4	11	19	10	12	
	5	24	2	4	11	17	9	12	
	6	26	2	4	10	14	6	12	
	7	28	2	4	9	11	5	12	
	8	29	2	4	6	10	4	12	
	9	30	2	4	5	8	3	12	
26	1	2	4	4	19	24	10	6	
	2	4	3	4	16	24	10	6	
	3	8	3	4	16	23	10	6	
	4	10	2	4	12	23	10	6	
	5	11	2	4	11	22	10	5	
	6	12	2	4	11	21	9	5	
	7	24	1	4	7	21	9	5	
	8	26	1	4	6	19	9	5	
	9	30	1	4	5	19	9	5	
27	1	2	4	5	27	23	19	7	
	2	13	4	4	26	23	19	6	
	3	14	4	4	24	21	19	5	
	4	16	3	4	22	21	18	5	
	5	17	3	3	22	19	18	5	
	6	18	2	3	20	17	17	4	
	7	21	2	2	17	17	17	4	
	8	27	1	2	16	15	16	3	
	9	28	1	2	15	14	16	3	
28	1	1	1	5	15	6	20	17	
	2	4	1	5	15	5	18	17	
	3	10	1	5	13	5	18	14	
	4	11	1	5	13	4	17	11	
	5	12	1	5	12	4	15	9	
	6	21	1	5	10	4	13	8	
	7	22	1	5	9	3	12	6	
	8	23	1	5	9	3	11	3	
	9	29	1	5	8	3	11	2	
29	1	4	5	5	24	19	25	26	
	2	8	4	4	22	18	22	25	
	3	10	4	4	22	16	21	22	
	4	16	3	4	20	14	19	22	
	5	17	3	4	20	11	18	18	
	6	18	2	4	20	9	18	17	
	7	19	2	4	18	6	17	15	
	8	21	1	4	17	3	14	15	
	9	22	1	4	17	1	14	13	
30	1	2	5	2	9	26	26	21	
	2	3	4	1	8	24	23	21	
	3	4	4	1	7	22	23	19	
	4	7	4	1	7	21	22	17	
	5	9	3	1	6	19	21	16	
	6	19	3	1	6	18	20	16	
	7	24	3	1	5	16	18	14	
	8	27	3	1	5	14	17	13	
	9	28	3	1	5	14	17	12	
31	1	1	5	5	29	26	20	22	
	2	2	4	4	28	25	19	20	
	3	3	4	3	27	24	17	20	
	4	4	4	3	27	22	16	18	
	5	8	4	2	26	22	14	17	
	6	21	4	2	25	22	12	16	
	7	23	4	2	25	21	10	15	
	8	25	4	1	24	20	8	13	
	9	26	4	1	24	19	5	13	
32	1	5	3	3	26	18	18	24	
	2	13	2	3	25	16	16	21	
	3	14	2	3	25	16	15	19	
	4	15	2	3	25	14	15	16	
	5	16	2	3	24	13	14	16	
	6	19	2	2	24	11	13	12	
	7	20	2	2	24	9	11	11	
	8	21	2	2	23	8	11	10	
	9	30	2	2	23	7	10	6	
33	1	2	2	3	15	4	4	3	
	2	3	1	3	15	3	4	3	
	3	11	1	3	15	3	4	2	
	4	18	1	3	14	3	4	3	
	5	23	1	3	13	3	4	2	
	6	24	1	3	13	2	4	2	
	7	25	1	3	13	2	4	1	
	8	29	1	3	12	2	4	2	
	9	30	1	3	12	2	4	1	
34	1	4	3	4	18	26	17	23	
	2	5	3	3	16	23	16	20	
	3	6	3	3	16	22	16	18	
	4	7	3	3	15	22	16	15	
	5	18	3	2	14	21	16	14	
	6	19	3	2	14	18	15	13	
	7	21	3	2	13	18	15	11	
	8	26	3	2	12	16	15	9	
	9	27	3	2	11	16	15	8	
35	1	1	3	3	10	7	15	10	
	2	6	3	3	9	7	11	10	
	3	8	3	3	8	7	11	10	
	4	11	3	3	8	6	8	10	
	5	13	2	3	7	6	7	10	
	6	16	2	3	6	6	7	10	
	7	20	1	3	6	6	4	10	
	8	22	1	3	4	5	2	10	
	9	25	1	3	4	5	2	9	
36	1	5	5	1	26	18	25	29	
	2	6	4	1	24	17	23	29	
	3	8	4	1	23	17	22	27	
	4	9	4	1	21	16	17	27	
	5	14	4	1	16	16	17	26	
	6	16	4	1	14	16	15	25	
	7	24	4	1	12	15	12	24	
	8	25	4	1	10	15	10	23	
	9	27	4	1	8	14	6	23	
37	1	1	1	4	17	24	19	23	
	2	13	1	4	15	23	18	23	
	3	19	1	4	14	22	18	22	
	4	20	1	4	13	21	18	22	
	5	23	1	4	13	20	18	22	
	6	24	1	4	13	20	18	21	
	7	25	1	4	12	19	18	20	
	8	26	1	4	11	19	18	20	
	9	30	1	4	10	18	18	20	
38	1	4	1	2	18	17	19	13	
	2	5	1	2	16	17	18	12	
	3	6	1	2	16	15	17	10	
	4	9	1	2	13	14	14	10	
	5	13	1	2	12	14	13	9	
	6	17	1	2	8	13	10	7	
	7	27	1	2	7	11	10	7	
	8	28	1	2	4	10	8	6	
	9	29	1	2	3	10	6	5	
39	1	1	4	3	22	25	21	25	
	2	4	3	3	20	23	20	23	
	3	7	3	3	17	22	18	20	
	4	11	3	3	14	19	15	20	
	5	13	3	3	14	19	14	17	
	6	14	2	3	12	16	12	16	
	7	15	2	3	10	14	11	15	
	8	27	2	3	6	13	8	14	
	9	30	2	3	6	13	8	13	
40	1	2	4	5	8	21	3	22	
	2	5	3	4	7	20	2	22	
	3	13	3	4	7	19	2	22	
	4	16	3	4	7	17	2	22	
	5	19	2	4	7	17	2	21	
	6	21	2	3	7	16	2	21	
	7	22	2	3	7	14	2	21	
	8	24	2	3	7	14	2	20	
	9	25	2	3	7	12	2	20	
41	1	2	2	2	10	11	15	9	
	2	3	2	2	9	10	15	9	
	3	4	2	2	9	9	15	8	
	4	13	2	2	9	7	15	7	
	5	14	2	2	8	7	15	7	
	6	18	2	2	7	6	15	6	
	7	20	2	2	7	5	15	6	
	8	24	2	2	7	3	15	5	
	9	28	2	2	6	2	15	5	
42	1	6	3	1	16	26	2	13	
	2	7	3	1	16	26	2	12	
	3	9	3	1	16	26	2	10	
	4	12	3	1	15	26	2	10	
	5	18	2	1	15	25	2	9	
	6	21	2	1	15	25	2	8	
	7	25	2	1	15	25	2	7	
	8	27	2	1	14	24	2	7	
	9	28	2	1	14	24	2	6	
43	1	1	4	2	27	12	3	26	
	2	7	3	1	24	11	3	24	
	3	12	3	1	23	11	3	23	
	4	16	3	1	21	10	3	22	
	5	18	3	1	18	10	3	21	
	6	20	3	1	15	10	3	19	
	7	22	3	1	13	9	3	18	
	8	28	3	1	9	9	3	18	
	9	30	3	1	7	9	3	17	
44	1	1	4	2	19	18	15	20	
	2	5	4	2	16	17	14	20	
	3	9	3	2	14	17	14	21	
	4	10	3	2	14	17	14	20	
	5	11	2	2	11	17	14	20	
	6	13	2	2	10	16	13	20	
	7	14	2	2	7	16	13	20	
	8	18	1	2	7	16	13	20	
	9	30	1	2	5	16	13	20	
45	1	9	3	4	20	11	13	19	
	2	13	3	4	18	10	12	17	
	3	15	3	4	17	10	10	17	
	4	16	3	4	16	9	10	15	
	5	17	2	3	15	8	9	15	
	6	21	2	3	14	8	9	12	
	7	22	2	3	11	7	8	12	
	8	23	2	2	11	7	6	11	
	9	26	2	2	8	7	6	9	
46	1	2	3	2	26	26	25	14	
	2	5	3	2	25	21	23	12	
	3	7	3	2	23	19	22	11	
	4	8	3	2	22	17	19	10	
	5	9	3	2	19	15	14	10	
	6	10	3	2	19	13	12	9	
	7	16	3	2	16	12	11	9	
	8	23	3	2	13	9	6	7	
	9	27	3	2	13	6	5	7	
47	1	3	5	5	30	26	24	13	
	2	4	4	4	28	24	21	13	
	3	6	4	4	28	24	18	13	
	4	8	4	4	27	21	16	13	
	5	10	3	3	27	18	14	13	
	6	13	3	3	27	15	12	13	
	7	21	3	3	26	12	8	13	
	8	25	3	3	25	10	6	13	
	9	27	3	3	25	8	5	13	
48	1	2	2	1	23	23	28	24	
	2	3	1	1	21	23	24	21	
	3	5	1	1	19	23	21	20	
	4	10	1	1	19	23	21	19	
	5	16	1	1	16	23	16	15	
	6	17	1	1	15	22	14	15	
	7	21	1	1	11	22	12	13	
	8	24	1	1	11	22	9	11	
	9	26	1	1	7	22	8	9	
49	1	5	4	3	12	29	29	29	
	2	6	4	3	10	29	26	26	
	3	9	4	3	9	28	25	26	
	4	13	4	3	8	27	23	22	
	5	14	3	3	6	27	21	22	
	6	19	3	3	5	27	17	20	
	7	25	2	3	5	26	16	16	
	8	28	2	3	4	26	15	14	
	9	29	2	3	3	25	11	13	
50	1	2	2	4	25	20	29	21	
	2	3	2	4	23	19	25	19	
	3	12	2	3	23	18	24	19	
	4	13	2	3	22	18	21	18	
	5	15	2	2	21	17	19	18	
	6	19	1	2	21	16	19	18	
	7	25	1	1	21	16	17	17	
	8	27	1	1	20	14	13	16	
	9	29	1	1	19	14	13	16	
51	1	2	2	3	25	15	20	10	
	2	4	2	2	25	15	19	10	
	3	14	2	2	22	15	18	9	
	4	15	2	2	19	15	17	9	
	5	19	2	2	18	15	16	9	
	6	20	2	2	16	15	13	8	
	7	24	2	2	15	15	13	7	
	8	25	2	2	12	15	12	7	
	9	27	2	2	10	15	10	7	
52	1	1	4	5	16	29	14	14	
	2	4	4	4	16	27	13	14	
	3	6	4	4	16	25	11	13	
	4	7	3	4	16	23	11	13	
	5	11	3	4	15	21	8	12	
	6	12	3	4	15	16	8	12	
	7	26	2	4	14	15	6	12	
	8	28	2	4	14	14	4	11	
	9	29	2	4	14	12	3	11	
53	1	2	4	4	17	21	27	9	
	2	3	4	4	16	18	27	9	
	3	4	4	4	15	18	23	7	
	4	5	4	4	14	17	22	6	
	5	9	4	4	12	15	19	6	
	6	13	4	3	12	14	16	5	
	7	15	4	3	11	12	15	4	
	8	16	4	3	10	12	13	2	
	9	17	4	3	9	10	11	2	
54	1	3	4	3	17	27	28	13	
	2	9	4	2	16	26	23	13	
	3	10	4	2	15	26	22	12	
	4	14	4	2	14	25	19	10	
	5	15	4	2	13	24	18	9	
	6	18	4	2	12	24	15	9	
	7	19	4	2	12	24	13	7	
	8	20	4	2	10	23	10	6	
	9	27	4	2	10	22	8	6	
55	1	14	5	3	27	29	27	28	
	2	16	4	2	26	25	26	27	
	3	17	4	2	26	20	25	27	
	4	18	3	2	25	20	21	25	
	5	19	3	2	25	15	18	23	
	6	20	3	2	25	11	17	23	
	7	21	2	2	25	8	14	22	
	8	23	2	2	24	5	13	20	
	9	28	2	2	24	3	11	19	
56	1	8	5	3	28	21	29	28	
	2	15	4	2	24	21	28	26	
	3	16	4	2	23	19	27	25	
	4	17	4	2	21	17	25	25	
	5	18	4	1	18	17	25	22	
	6	25	4	1	15	14	24	21	
	7	26	4	1	15	12	24	20	
	8	29	4	1	13	11	23	18	
	9	30	4	1	11	11	22	18	
57	1	2	3	4	14	10	29	9	
	2	3	2	3	13	10	28	8	
	3	5	2	3	12	10	27	7	
	4	9	2	2	10	9	27	6	
	5	10	2	2	8	9	25	5	
	6	11	2	2	7	9	25	5	
	7	22	2	1	6	9	24	3	
	8	25	2	1	3	8	23	2	
	9	26	2	1	3	8	23	1	
58	1	1	1	4	25	26	28	22	
	2	2	1	3	25	23	28	19	
	3	3	1	3	24	22	28	17	
	4	6	1	3	23	17	28	16	
	5	9	1	2	22	13	28	16	
	6	10	1	2	22	12	28	13	
	7	15	1	1	21	7	28	11	
	8	25	1	1	21	6	28	11	
	9	28	1	1	20	2	28	10	
59	1	5	4	3	16	17	12	20	
	2	6	4	2	14	16	12	20	
	3	8	4	2	13	15	10	19	
	4	11	4	2	12	13	10	17	
	5	17	3	2	10	12	8	17	
	6	19	3	2	9	11	6	16	
	7	20	3	2	8	9	5	14	
	8	21	2	2	8	8	4	14	
	9	22	2	2	7	6	3	13	
60	1	2	3	5	3	8	25	28	
	2	10	3	4	2	7	22	25	
	3	11	3	3	2	7	22	24	
	4	12	3	3	2	7	21	21	
	5	13	3	3	2	7	19	21	
	6	19	3	2	1	6	19	18	
	7	22	3	1	1	6	18	16	
	8	28	3	1	1	6	17	16	
	9	29	3	1	1	6	16	14	
61	1	1	5	1	6	20	28	17	
	2	3	4	1	6	20	25	16	
	3	8	4	1	6	19	23	15	
	4	11	4	1	6	18	23	14	
	5	12	4	1	6	17	19	14	
	6	13	4	1	6	17	16	13	
	7	22	4	1	6	17	16	11	
	8	27	4	1	6	15	12	10	
	9	30	4	1	6	15	10	9	
62	1	4	2	1	10	22	17	22	
	2	7	1	1	10	20	16	21	
	3	10	1	1	9	18	15	21	
	4	13	1	1	9	17	15	20	
	5	19	1	1	7	13	14	20	
	6	20	1	1	7	11	13	21	
	7	21	1	1	7	11	13	20	
	8	24	1	1	6	7	11	19	
	9	30	1	1	5	7	11	19	
63	1	2	5	4	18	4	27	15	
	2	3	4	3	18	4	26	14	
	3	5	4	3	16	4	25	14	
	4	6	4	3	15	4	24	12	
	5	9	4	2	15	3	22	11	
	6	10	4	2	14	3	22	10	
	7	11	4	2	12	2	21	10	
	8	15	4	2	11	2	19	9	
	9	17	4	2	10	2	19	7	
64	1	1	2	4	27	21	25	25	
	2	3	2	3	26	21	25	25	
	3	7	2	3	25	19	24	22	
	4	18	2	3	23	17	22	18	
	5	19	2	3	22	15	21	16	
	6	20	2	3	22	11	21	16	
	7	22	2	3	21	11	19	13	
	8	23	2	3	19	8	19	9	
	9	27	2	3	18	7	18	9	
65	1	5	4	4	11	22	24	6	
	2	6	4	3	11	18	22	5	
	3	7	4	3	10	16	18	5	
	4	8	3	3	9	14	14	5	
	5	9	3	3	7	13	12	5	
	6	10	3	3	6	13	11	4	
	7	11	2	3	5	11	7	4	
	8	14	2	3	5	7	5	4	
	9	23	2	3	4	7	3	4	
66	1	7	2	4	26	11	9	25	
	2	9	2	4	24	10	8	24	
	3	10	2	4	20	10	7	24	
	4	11	2	4	18	10	6	23	
	5	15	2	4	14	10	5	23	
	6	19	2	3	13	10	4	23	
	7	28	2	3	7	10	3	23	
	8	29	2	3	7	10	2	22	
	9	30	2	3	3	10	2	22	
67	1	1	5	4	19	7	12	19	
	2	9	4	3	19	7	12	18	
	3	11	3	3	19	7	12	18	
	4	13	3	3	19	7	12	17	
	5	15	3	2	19	7	12	18	
	6	18	2	2	19	7	12	18	
	7	19	2	2	19	7	12	17	
	8	21	1	1	19	7	12	18	
	9	28	1	1	19	7	12	17	
68	1	1	5	3	24	26	20	19	
	2	3	5	3	23	23	20	18	
	3	4	5	3	21	23	20	16	
	4	10	5	3	18	20	20	16	
	5	21	5	2	15	18	19	14	
	6	23	5	2	12	17	19	11	
	7	25	5	2	12	17	19	9	
	8	27	5	2	7	14	19	9	
	9	30	5	2	5	13	19	7	
69	1	2	3	3	27	30	10	21	
	2	3	3	3	27	27	10	21	
	3	6	3	3	26	25	10	17	
	4	11	3	2	25	23	9	17	
	5	13	3	2	25	23	9	12	
	6	15	3	2	24	20	9	11	
	7	20	3	1	24	19	8	7	
	8	23	3	1	23	19	8	5	
	9	27	3	1	23	16	8	3	
70	1	6	4	4	27	21	20	21	
	2	11	4	4	24	18	19	16	
	3	16	4	4	21	17	18	14	
	4	17	3	4	18	15	18	14	
	5	23	3	4	17	14	17	11	
	6	24	3	4	12	13	17	8	
	7	27	2	4	12	11	16	5	
	8	29	2	4	9	8	15	3	
	9	30	2	4	7	7	15	1	
71	1	1	3	3	21	25	22	19	
	2	13	3	2	19	22	20	18	
	3	15	3	2	19	21	17	18	
	4	16	2	2	17	20	16	17	
	5	17	2	1	16	17	13	16	
	6	18	2	1	15	15	12	15	
	7	23	1	1	14	15	10	13	
	8	25	1	1	13	13	6	13	
	9	28	1	1	12	11	5	12	
72	1	1	5	3	16	23	15	14	
	2	2	4	2	15	23	13	13	
	3	3	4	2	14	19	11	13	
	4	4	4	2	13	19	11	13	
	5	12	4	2	11	15	9	13	
	6	13	3	2	11	13	8	13	
	7	14	3	2	10	13	7	13	
	8	16	3	2	8	10	7	13	
	9	27	3	2	7	9	6	13	
73	1	1	3	2	1	21	21	26	
	2	6	2	2	1	18	20	24	
	3	8	2	2	1	18	20	22	
	4	9	2	2	1	16	19	19	
	5	13	2	2	1	14	19	16	
	6	14	2	2	1	14	19	13	
	7	23	2	2	1	11	18	9	
	8	29	2	2	1	9	18	8	
	9	30	2	2	1	8	18	4	
74	1	1	5	2	13	27	25	26	
	2	5	4	2	13	26	22	25	
	3	8	4	2	13	25	20	25	
	4	9	4	2	12	23	18	22	
	5	11	3	1	11	23	13	22	
	6	12	3	1	11	22	12	21	
	7	16	3	1	11	20	10	18	
	8	20	2	1	10	19	7	18	
	9	23	2	1	10	19	3	16	
75	1	5	5	5	28	30	7	27	
	2	6	4	4	26	28	7	27	
	3	9	4	3	24	28	7	26	
	4	10	4	3	22	27	6	24	
	5	11	3	2	21	26	5	24	
	6	21	3	2	19	24	5	23	
	7	22	3	2	19	24	4	22	
	8	29	3	1	16	23	4	21	
	9	30	3	1	15	22	4	19	
76	1	1	3	3	16	22	29	26	
	2	2	3	2	15	19	24	24	
	3	3	3	2	15	19	23	24	
	4	8	3	2	13	18	20	20	
	5	10	3	2	13	16	15	17	
	6	17	3	2	11	16	14	15	
	7	19	3	2	10	15	10	14	
	8	29	3	2	9	13	8	12	
	9	30	3	2	8	13	3	10	
77	1	5	4	5	5	27	25	24	
	2	11	4	4	5	26	25	22	
	3	21	3	4	5	26	25	21	
	4	22	3	3	5	24	24	21	
	5	23	2	3	5	21	24	20	
	6	24	2	3	5	20	24	19	
	7	26	2	3	5	18	24	19	
	8	28	1	2	5	18	23	18	
	9	29	1	2	5	17	23	17	
78	1	1	5	3	26	23	24	11	
	2	2	4	3	25	21	23	10	
	3	3	4	3	25	17	22	9	
	4	4	3	3	25	14	20	7	
	5	6	3	2	24	13	18	7	
	6	12	3	2	24	10	16	6	
	7	14	3	2	23	8	16	4	
	8	26	2	2	23	3	14	3	
	9	27	2	2	23	2	12	3	
79	1	2	5	4	10	22	9	27	
	2	3	4	3	9	22	9	26	
	3	4	4	3	9	20	8	26	
	4	8	3	3	9	19	6	26	
	5	9	2	3	8	18	6	24	
	6	16	2	2	8	17	6	24	
	7	20	1	2	7	17	5	24	
	8	21	1	2	7	16	3	22	
	9	30	1	2	7	14	3	22	
80	1	1	2	2	16	25	23	16	
	2	2	2	2	16	23	20	15	
	3	5	2	2	15	19	18	15	
	4	9	2	2	15	18	18	13	
	5	12	2	2	14	15	16	13	
	6	13	2	1	14	13	13	12	
	7	28	2	1	14	8	12	11	
	8	29	2	1	13	6	10	10	
	9	30	2	1	13	5	8	10	
81	1	4	4	2	14	21	20	12	
	2	5	4	2	13	17	19	12	
	3	12	4	2	12	15	17	12	
	4	14	3	2	12	14	14	12	
	5	16	3	2	10	13	13	11	
	6	19	3	2	10	10	9	11	
	7	26	3	2	10	8	5	11	
	8	28	2	2	8	8	5	10	
	9	29	2	2	8	5	2	10	
82	1	7	3	5	18	20	13	24	
	2	10	2	5	17	19	12	21	
	3	12	2	5	17	18	11	21	
	4	14	2	5	17	18	10	19	
	5	15	2	5	16	17	8	17	
	6	16	1	5	16	16	7	16	
	7	21	1	5	16	16	6	16	
	8	27	1	5	15	14	5	14	
	9	28	1	5	15	14	4	14	
83	1	2	4	5	20	19	27	21	
	2	4	4	4	19	17	25	19	
	3	9	4	4	19	16	23	18	
	4	14	4	4	18	15	22	18	
	5	20	4	3	17	14	20	17	
	6	24	4	3	16	13	17	16	
	7	25	4	3	14	13	15	14	
	8	26	4	2	14	11	10	13	
	9	29	4	2	13	11	8	12	
84	1	1	3	3	26	27	11	28	
	2	8	2	2	26	27	11	27	
	3	13	2	2	25	25	10	26	
	4	15	2	2	25	24	7	26	
	5	16	2	2	23	24	6	25	
	6	23	2	2	23	23	6	24	
	7	25	2	2	23	22	3	24	
	8	27	2	2	21	21	3	23	
	9	28	2	2	21	20	2	22	
85	1	3	5	4	8	29	19	15	
	2	6	5	4	7	28	18	15	
	3	8	5	4	6	26	18	15	
	4	9	5	4	5	24	17	15	
	5	20	5	4	5	23	17	14	
	6	22	5	3	4	23	17	14	
	7	25	5	3	4	21	17	14	
	8	26	5	3	3	19	16	13	
	9	30	5	3	3	19	16	12	
86	1	1	5	4	18	23	13	20	
	2	2	4	4	16	21	13	19	
	3	9	4	4	13	18	13	16	
	4	14	4	4	13	17	13	16	
	5	18	3	4	9	14	12	14	
	6	19	3	4	8	13	12	11	
	7	21	2	4	5	11	12	9	
	8	22	2	4	3	9	12	9	
	9	26	2	4	2	9	12	7	
87	1	9	5	4	30	25	13	16	
	2	10	4	4	28	25	12	16	
	3	12	4	4	27	21	11	14	
	4	15	4	4	25	19	8	12	
	5	18	4	4	25	19	7	11	
	6	21	4	4	23	17	5	10	
	7	24	4	4	22	13	5	8	
	8	27	4	4	21	13	3	7	
	9	28	4	4	21	11	1	7	
88	1	14	3	5	26	21	27	28	
	2	15	2	4	25	20	25	27	
	3	16	2	4	25	20	23	25	
	4	23	2	3	24	19	20	24	
	5	24	2	3	22	18	20	21	
	6	25	2	3	22	17	19	20	
	7	26	2	2	20	15	17	18	
	8	27	2	2	20	14	16	17	
	9	28	2	2	19	14	14	14	
89	1	2	5	4	25	14	28	26	
	2	6	5	4	25	14	28	25	
	3	9	5	4	24	12	27	25	
	4	12	5	4	23	11	27	24	
	5	16	5	4	23	11	25	24	
	6	17	5	3	23	9	25	23	
	7	18	5	3	22	9	25	23	
	8	21	5	3	22	8	23	22	
	9	22	5	3	21	6	23	22	
90	1	5	5	4	23	22	28	11	
	2	7	4	3	23	21	27	11	
	3	8	4	3	22	20	27	10	
	4	15	4	3	21	20	26	9	
	5	20	4	3	21	18	26	8	
	6	21	4	2	20	18	25	8	
	7	23	4	2	20	16	25	7	
	8	25	4	2	19	15	25	7	
	9	28	4	2	19	15	24	6	
91	1	4	4	3	23	26	13	26	
	2	5	4	3	21	25	11	24	
	3	10	4	3	20	23	10	22	
	4	11	4	3	20	22	10	19	
	5	17	4	3	19	21	9	17	
	6	20	4	3	17	21	7	13	
	7	22	4	3	17	20	6	10	
	8	26	4	3	15	18	6	6	
	9	27	4	3	15	18	4	4	
92	1	1	4	1	21	14	11	16	
	2	4	3	1	19	13	11	15	
	3	7	3	1	19	13	11	14	
	4	8	2	1	17	13	10	15	
	5	10	2	1	17	11	10	15	
	6	22	2	1	16	11	10	15	
	7	24	2	1	16	10	10	15	
	8	28	1	1	15	10	9	15	
	9	29	1	1	14	9	9	15	
93	1	9	2	4	24	29	28	28	
	2	10	2	3	24	29	27	27	
	3	17	2	3	22	28	27	23	
	4	19	2	2	20	27	26	22	
	5	24	1	2	19	27	25	18	
	6	26	1	2	18	27	24	18	
	7	27	1	1	15	26	23	14	
	8	28	1	1	14	26	22	11	
	9	29	1	1	14	25	20	10	
94	1	4	1	4	21	27	26	22	
	2	9	1	4	19	27	24	21	
	3	11	1	4	16	26	22	19	
	4	12	1	3	15	26	21	18	
	5	15	1	2	10	25	19	18	
	6	16	1	2	9	24	18	17	
	7	25	1	2	8	24	18	17	
	8	26	1	1	5	23	17	16	
	9	27	1	1	4	22	16	15	
95	1	2	4	4	28	30	29	23	
	2	3	3	3	24	29	26	21	
	3	5	3	3	22	27	22	19	
	4	8	3	3	21	27	20	17	
	5	10	2	3	18	26	18	17	
	6	15	2	3	13	24	16	15	
	7	22	2	3	10	24	15	14	
	8	23	1	3	9	22	12	11	
	9	27	1	3	5	22	9	10	
96	1	1	3	2	12	21	21	26	
	2	2	2	2	11	19	20	23	
	3	4	2	2	10	17	17	21	
	4	5	2	2	9	16	17	17	
	5	6	1	2	8	13	13	16	
	6	7	1	2	8	13	10	13	
	7	18	1	2	7	11	8	13	
	8	20	1	2	7	10	7	11	
	9	26	1	2	6	8	5	9	
97	1	2	3	2	19	10	12	7	
	2	3	3	2	19	10	12	6	
	3	7	3	2	18	10	11	6	
	4	8	3	2	16	10	10	5	
	5	9	2	2	15	9	9	5	
	6	10	2	2	14	9	8	5	
	7	16	2	2	13	8	7	4	
	8	24	1	2	12	8	6	4	
	9	27	1	2	12	8	5	3	
98	1	1	3	1	25	25	17	12	
	2	2	3	1	25	25	16	12	
	3	4	3	1	25	25	16	10	
	4	15	3	1	25	25	14	9	
	5	19	2	1	25	25	14	8	
	6	20	2	1	25	25	13	6	
	7	22	2	1	25	25	12	5	
	8	27	2	1	25	25	12	2	
	9	28	2	1	25	25	11	1	
99	1	8	2	5	8	10	28	27	
	2	11	2	4	6	10	25	26	
	3	13	2	3	6	10	24	23	
	4	14	2	3	5	10	20	21	
	5	15	2	3	4	10	20	18	
	6	20	1	2	4	9	16	16	
	7	21	1	1	3	9	14	15	
	8	24	1	1	2	9	12	13	
	9	29	1	1	1	9	10	11	
100	1	3	3	3	23	17	25	19	
	2	4	2	3	20	14	22	16	
	3	5	2	3	18	13	21	13	
	4	10	2	2	15	13	16	13	
	5	11	2	2	12	11	15	9	
	6	12	2	2	11	9	13	7	
	7	21	2	1	7	9	9	7	
	8	24	2	1	5	6	7	5	
	9	28	2	1	4	6	5	3	
101	1	3	1	3	21	1	14	18	
	2	10	1	3	20	1	13	18	
	3	13	1	3	20	1	11	15	
	4	14	1	3	19	1	11	14	
	5	21	1	3	19	1	9	13	
	6	22	1	3	19	1	8	11	
	7	25	1	3	19	1	8	9	
	8	29	1	3	18	1	7	9	
	9	30	1	3	18	1	5	8	
102	1	0	0	0	0	0	0	0	
************************************************************************

 RESOURCE AVAILABILITIES 
	R 1	R 2	N 1	N 2	N 3	N 4
	39	41	1310	1369	1302	1302

************************************************************************
